; benchmark generated from python API
(set-info :status unknown)
(declare-fun cell_1_8 () Int)
(declare-fun cell_2_1 () Int)
(declare-fun cell_3_5 () Int)
(declare-fun cell_4_4 () Int)
(declare-fun cell_5_3 () Int)
(declare-fun cell_6_9 () Int)
(declare-fun cell_7_7 () Int)
(declare-fun cell_1_1 () Int)
(declare-fun cell_3_1 () Int)
(declare-fun cell_4_1 () Int)
(declare-fun cell_5_1 () Int)
(declare-fun cell_6_1 () Int)
(declare-fun cell_7_1 () Int)
(declare-fun cell_8_1 () Int)
(declare-fun cell_9_1 () Int)
(declare-fun cell_1_2 () Int)
(declare-fun cell_2_2 () Int)
(declare-fun cell_3_2 () Int)
(declare-fun cell_4_2 () Int)
(declare-fun cell_5_2 () Int)
(declare-fun cell_6_2 () Int)
(declare-fun cell_7_2 () Int)
(declare-fun cell_8_2 () Int)
(declare-fun cell_9_2 () Int)
(declare-fun cell_1_3 () Int)
(declare-fun cell_2_3 () Int)
(declare-fun cell_3_3 () Int)
(declare-fun cell_4_3 () Int)
(declare-fun cell_6_3 () Int)
(declare-fun cell_7_3 () Int)
(declare-fun cell_8_3 () Int)
(declare-fun cell_9_3 () Int)
(declare-fun cell_1_4 () Int)
(declare-fun cell_2_4 () Int)
(declare-fun cell_3_4 () Int)
(declare-fun cell_5_4 () Int)
(declare-fun cell_6_4 () Int)
(declare-fun cell_7_4 () Int)
(declare-fun cell_8_4 () Int)
(declare-fun cell_9_4 () Int)
(declare-fun cell_1_5 () Int)
(declare-fun cell_2_5 () Int)
(declare-fun cell_4_5 () Int)
(declare-fun cell_5_5 () Int)
(declare-fun cell_6_5 () Int)
(declare-fun cell_7_5 () Int)
(declare-fun cell_8_5 () Int)
(declare-fun cell_9_5 () Int)
(declare-fun cell_1_6 () Int)
(declare-fun cell_2_6 () Int)
(declare-fun cell_3_6 () Int)
(declare-fun cell_4_6 () Int)
(declare-fun cell_5_6 () Int)
(declare-fun cell_6_6 () Int)
(declare-fun cell_7_6 () Int)
(declare-fun cell_8_6 () Int)
(declare-fun cell_9_6 () Int)
(declare-fun cell_1_7 () Int)
(declare-fun cell_2_7 () Int)
(declare-fun cell_3_7 () Int)
(declare-fun cell_4_7 () Int)
(declare-fun cell_5_7 () Int)
(declare-fun cell_6_7 () Int)
(declare-fun cell_8_7 () Int)
(declare-fun cell_9_7 () Int)
(declare-fun cell_2_8 () Int)
(declare-fun cell_3_8 () Int)
(declare-fun cell_4_8 () Int)
(declare-fun cell_5_8 () Int)
(declare-fun cell_6_8 () Int)
(declare-fun cell_7_8 () Int)
(declare-fun cell_8_8 () Int)
(declare-fun cell_9_8 () Int)
(declare-fun cell_1_9 () Int)
(declare-fun cell_2_9 () Int)
(declare-fun cell_3_9 () Int)
(declare-fun cell_4_9 () Int)
(declare-fun cell_5_9 () Int)
(declare-fun cell_7_9 () Int)
(declare-fun cell_8_9 () Int)
(declare-fun cell_9_9 () Int)
(assert
 (= cell_1_8 1))
(assert
 (= cell_2_1 1))
(assert
 (= cell_3_5 1))
(assert
 (= cell_4_4 1))
(assert
 (= cell_5_3 1))
(assert
 (= cell_6_9 1))
(assert
 (= cell_7_7 1))
(assert
 (let (($x2607 (= cell_1_1 9)))
 (let (($x335 (= cell_1_1 8)))
 (let (($x3498 (= cell_1_1 7)))
 (let (($x7895 (= cell_1_1 6)))
 (let (($x4067 (= cell_1_1 5)))
 (let (($x10106 (= cell_1_1 4)))
 (let (($x7253 (= cell_1_1 3)))
 (let (($x5220 (= cell_1_1 2)))
 (let (($x2824 (= cell_1_1 1)))
 (or $x2824 $x5220 $x7253 $x10106 $x4067 $x7895 $x3498 $x335 $x2607)))))))))))
(assert
 (let (($x4118 (= cell_2_1 1)))
 (or $x4118 (= cell_2_1 2) (= cell_2_1 3) (= cell_2_1 4) (= cell_2_1 5) (= cell_2_1 6) (= cell_2_1 7) (= cell_2_1 8) (= cell_2_1 9))))
(assert
 (let (($x1522 (= cell_3_1 9)))
 (let (($x7969 (= cell_3_1 8)))
 (let (($x6433 (= cell_3_1 7)))
 (let (($x5696 (= cell_3_1 6)))
 (let (($x6609 (= cell_3_1 5)))
 (let (($x2581 (= cell_3_1 4)))
 (let (($x5523 (= cell_3_1 3)))
 (let (($x8066 (= cell_3_1 2)))
 (let (($x9671 (= cell_3_1 1)))
 (or $x9671 $x8066 $x5523 $x2581 $x6609 $x5696 $x6433 $x7969 $x1522)))))))))))
(assert
 (let (($x3234 (= cell_4_1 9)))
 (let (($x2013 (= cell_4_1 8)))
 (let (($x8616 (= cell_4_1 7)))
 (let (($x6334 (= cell_4_1 6)))
 (let (($x1839 (= cell_4_1 5)))
 (let (($x8010 (= cell_4_1 4)))
 (let (($x8943 (= cell_4_1 3)))
 (let (($x4003 (= cell_4_1 2)))
 (let (($x9093 (= cell_4_1 1)))
 (or $x9093 $x4003 $x8943 $x8010 $x1839 $x6334 $x8616 $x2013 $x3234)))))))))))
(assert
 (let (($x10098 (= cell_5_1 9)))
 (let (($x10057 (= cell_5_1 8)))
 (let (($x7 (= cell_5_1 7)))
 (let (($x9079 (= cell_5_1 6)))
 (let (($x5321 (= cell_5_1 5)))
 (let (($x10066 (= cell_5_1 4)))
 (let (($x2249 (= cell_5_1 3)))
 (let (($x4152 (= cell_5_1 2)))
 (let (($x7366 (= cell_5_1 1)))
 (or $x7366 $x4152 $x2249 $x10066 $x5321 $x9079 $x7 $x10057 $x10098)))))))))))
(assert
 (let (($x4155 (= cell_6_1 9)))
 (let (($x620 (= cell_6_1 8)))
 (let (($x8430 (= cell_6_1 7)))
 (let (($x10139 (= cell_6_1 6)))
 (let (($x3027 (= cell_6_1 5)))
 (let (($x765 (= cell_6_1 4)))
 (let (($x7751 (= cell_6_1 3)))
 (let (($x211 (= cell_6_1 2)))
 (let (($x3387 (= cell_6_1 1)))
 (or $x3387 $x211 $x7751 $x765 $x3027 $x10139 $x8430 $x620 $x4155)))))))))))
(assert
 (let (($x7982 (= cell_7_1 9)))
 (let (($x5212 (= cell_7_1 8)))
 (let (($x257 (= cell_7_1 7)))
 (let (($x5430 (= cell_7_1 6)))
 (let (($x8895 (= cell_7_1 5)))
 (let (($x3243 (= cell_7_1 4)))
 (let (($x1609 (= cell_7_1 3)))
 (let (($x1958 (= cell_7_1 2)))
 (let (($x1935 (= cell_7_1 1)))
 (or $x1935 $x1958 $x1609 $x3243 $x8895 $x5430 $x257 $x5212 $x7982)))))))))))
(assert
 (let (($x480 (= cell_8_1 1)))
 (or $x480 (= cell_8_1 2) (= cell_8_1 3) (= cell_8_1 4) (= cell_8_1 5) (= cell_8_1 6) (= cell_8_1 7) (= cell_8_1 8) (= cell_8_1 9))))
(assert
 (let (($x6153 (= cell_9_1 1)))
 (or $x6153 (= cell_9_1 2) (= cell_9_1 3) (= cell_9_1 4) (= cell_9_1 5) (= cell_9_1 6) (= cell_9_1 7) (= cell_9_1 8) (= cell_9_1 9))))
(assert
 (let (($x5606 (= cell_1_2 9)))
 (let (($x4574 (= cell_1_2 8)))
 (let (($x617 (= cell_1_2 7)))
 (let (($x5405 (= cell_1_2 6)))
 (let (($x3831 (= cell_1_2 5)))
 (let (($x3580 (= cell_1_2 4)))
 (let (($x4431 (= cell_1_2 3)))
 (let (($x2823 (= cell_1_2 2)))
 (let (($x5755 (= cell_1_2 1)))
 (or $x5755 $x2823 $x4431 $x3580 $x3831 $x5405 $x617 $x4574 $x5606)))))))))))
(assert
 (let (($x1619 (= cell_2_2 1)))
 (or $x1619 (= cell_2_2 2) (= cell_2_2 3) (= cell_2_2 4) (= cell_2_2 5) (= cell_2_2 6) (= cell_2_2 7) (= cell_2_2 8) (= cell_2_2 9))))
(assert
 (let (($x6016 (= cell_3_2 9)))
 (let (($x1069 (= cell_3_2 8)))
 (let (($x7095 (= cell_3_2 7)))
 (let (($x5976 (= cell_3_2 6)))
 (let (($x7128 (= cell_3_2 5)))
 (let (($x10109 (= cell_3_2 4)))
 (let (($x1644 (= cell_3_2 3)))
 (let (($x1378 (= cell_3_2 2)))
 (let (($x5396 (= cell_3_2 1)))
 (or $x5396 $x1378 $x1644 $x10109 $x7128 $x5976 $x7095 $x1069 $x6016)))))))))))
(assert
 (let (($x8290 (= cell_4_2 9)))
 (let (($x7378 (= cell_4_2 8)))
 (let (($x1030 (= cell_4_2 7)))
 (let (($x5862 (= cell_4_2 6)))
 (let (($x5905 (= cell_4_2 5)))
 (let (($x8672 (= cell_4_2 4)))
 (let (($x591 (= cell_4_2 3)))
 (let (($x1822 (= cell_4_2 2)))
 (let (($x5469 (= cell_4_2 1)))
 (or $x5469 $x1822 $x591 $x8672 $x5905 $x5862 $x1030 $x7378 $x8290)))))))))))
(assert
 (let (($x1047 (= cell_5_2 9)))
 (let (($x8682 (= cell_5_2 8)))
 (let (($x1727 (= cell_5_2 7)))
 (let (($x5500 (= cell_5_2 6)))
 (let (($x7200 (= cell_5_2 5)))
 (let (($x8893 (= cell_5_2 4)))
 (let (($x8675 (= cell_5_2 3)))
 (let (($x1919 (= cell_5_2 2)))
 (let (($x311 (= cell_5_2 1)))
 (or $x311 $x1919 $x8675 $x8893 $x7200 $x5500 $x1727 $x8682 $x1047)))))))))))
(assert
 (let (($x5291 (= cell_6_2 9)))
 (let (($x1647 (= cell_6_2 8)))
 (let (($x8726 (= cell_6_2 7)))
 (let (($x2518 (= cell_6_2 6)))
 (let (($x1804 (= cell_6_2 5)))
 (let (($x7660 (= cell_6_2 4)))
 (let (($x2451 (= cell_6_2 3)))
 (let (($x8715 (= cell_6_2 2)))
 (let (($x8207 (= cell_6_2 1)))
 (or $x8207 $x8715 $x2451 $x7660 $x1804 $x2518 $x8726 $x1647 $x5291)))))))))))
(assert
 (let (($x7571 (= cell_7_2 9)))
 (let (($x1570 (= cell_7_2 8)))
 (let (($x3462 (= cell_7_2 7)))
 (let (($x10107 (= cell_7_2 6)))
 (let (($x948 (= cell_7_2 5)))
 (let (($x3607 (= cell_7_2 4)))
 (let (($x4526 (= cell_7_2 3)))
 (let (($x2097 (= cell_7_2 2)))
 (let (($x4049 (= cell_7_2 1)))
 (or $x4049 $x2097 $x4526 $x3607 $x948 $x10107 $x3462 $x1570 $x7571)))))))))))
(assert
 (let (($x2647 (= cell_8_2 1)))
 (or $x2647 (= cell_8_2 2) (= cell_8_2 3) (= cell_8_2 4) (= cell_8_2 5) (= cell_8_2 6) (= cell_8_2 7) (= cell_8_2 8) (= cell_8_2 9))))
(assert
 (or (= cell_9_2 1) (= cell_9_2 2) (= cell_9_2 3) (= cell_9_2 4) (= cell_9_2 5) (= cell_9_2 6) (= cell_9_2 7) (= cell_9_2 8) (= cell_9_2 9)))
(assert
 (let (($x1271 (= cell_1_3 9)))
 (let (($x9099 (= cell_1_3 8)))
 (let (($x4757 (= cell_1_3 7)))
 (let (($x3189 (= cell_1_3 6)))
 (let (($x7480 (= cell_1_3 5)))
 (let (($x1008 (= cell_1_3 4)))
 (let (($x985 (= cell_1_3 3)))
 (let (($x1183 (= cell_1_3 2)))
 (let (($x6487 (= cell_1_3 1)))
 (or $x6487 $x1183 $x985 $x1008 $x7480 $x3189 $x4757 $x9099 $x1271)))))))))))
(assert
 (let (($x6844 (= cell_2_3 9)))
 (let (($x486 (= cell_2_3 8)))
 (let (($x6166 (= cell_2_3 7)))
 (let (($x6311 (= cell_2_3 6)))
 (let (($x7961 (= cell_2_3 5)))
 (let (($x6354 (= cell_2_3 4)))
 (let (($x6757 (= cell_2_3 3)))
 (let (($x2854 (= cell_2_3 2)))
 (let (($x1468 (= cell_2_3 1)))
 (or $x1468 $x2854 $x6757 $x6354 $x7961 $x6311 $x6166 $x486 $x6844)))))))))))
(assert
 (let (($x3022 (= cell_3_3 9)))
 (let (($x1084 (= cell_3_3 8)))
 (let (($x9190 (= cell_3_3 7)))
 (let (($x6499 (= cell_3_3 6)))
 (let (($x1184 (= cell_3_3 5)))
 (let (($x5887 (= cell_3_3 4)))
 (let (($x8814 (= cell_3_3 3)))
 (let (($x9797 (= cell_3_3 2)))
 (let (($x9047 (= cell_3_3 1)))
 (or $x9047 $x9797 $x8814 $x5887 $x1184 $x6499 $x9190 $x1084 $x3022)))))))))))
(assert
 (let (($x8096 (= cell_4_3 9)))
 (let (($x4012 (= cell_4_3 8)))
 (let (($x3295 (= cell_4_3 7)))
 (let (($x8988 (= cell_4_3 6)))
 (let (($x6878 (= cell_4_3 5)))
 (let (($x3385 (= cell_4_3 4)))
 (let (($x8277 (= cell_4_3 3)))
 (let (($x4673 (= cell_4_3 2)))
 (let (($x4751 (= cell_4_3 1)))
 (or $x4751 $x4673 $x8277 $x3385 $x6878 $x8988 $x3295 $x4012 $x8096)))))))))))
(assert
 (let (($x2620 (= cell_5_3 1)))
 (or $x2620 (= cell_5_3 2) (= cell_5_3 3) (= cell_5_3 4) (= cell_5_3 5) (= cell_5_3 6) (= cell_5_3 7) (= cell_5_3 8) (= cell_5_3 9))))
(assert
 (let (($x2798 (= cell_6_3 9)))
 (let (($x5438 (= cell_6_3 8)))
 (let (($x5094 (= cell_6_3 7)))
 (let (($x6278 (= cell_6_3 6)))
 (let (($x3192 (= cell_6_3 5)))
 (let (($x6550 (= cell_6_3 4)))
 (let (($x5897 (= cell_6_3 3)))
 (let (($x3070 (= cell_6_3 2)))
 (let (($x2804 (= cell_6_3 1)))
 (or $x2804 $x3070 $x5897 $x6550 $x3192 $x6278 $x5094 $x5438 $x2798)))))))))))
(assert
 (let (($x8098 (= cell_7_3 9)))
 (let (($x4891 (= cell_7_3 8)))
 (let (($x2934 (= cell_7_3 7)))
 (let (($x8278 (= cell_7_3 6)))
 (let (($x6724 (= cell_7_3 5)))
 (let (($x3182 (= cell_7_3 4)))
 (let (($x1385 (= cell_7_3 3)))
 (let (($x2467 (= cell_7_3 2)))
 (let (($x2431 (= cell_7_3 1)))
 (or $x2431 $x2467 $x1385 $x3182 $x6724 $x8278 $x2934 $x4891 $x8098)))))))))))
(assert
 (let (($x4655 (= cell_8_3 1)))
 (or $x4655 (= cell_8_3 2) (= cell_8_3 3) (= cell_8_3 4) (= cell_8_3 5) (= cell_8_3 6) (= cell_8_3 7) (= cell_8_3 8) (= cell_8_3 9))))
(assert
 (let (($x2673 (= cell_9_3 1)))
 (or $x2673 (= cell_9_3 2) (= cell_9_3 3) (= cell_9_3 4) (= cell_9_3 5) (= cell_9_3 6) (= cell_9_3 7) (= cell_9_3 8) (= cell_9_3 9))))
(assert
 (let (($x3439 (= cell_1_4 9)))
 (let (($x5753 (= cell_1_4 8)))
 (let (($x6273 (= cell_1_4 7)))
 (let (($x1631 (= cell_1_4 6)))
 (let (($x5334 (= cell_1_4 5)))
 (let (($x994 (= cell_1_4 4)))
 (let (($x8615 (= cell_1_4 3)))
 (let (($x9193 (= cell_1_4 2)))
 (let (($x545 (= cell_1_4 1)))
 (or $x545 $x9193 $x8615 $x994 $x5334 $x1631 $x6273 $x5753 $x3439)))))))))))
(assert
 (let (($x2589 (= cell_2_4 9)))
 (let (($x5474 (= cell_2_4 8)))
 (let (($x5879 (= cell_2_4 7)))
 (let (($x3250 (= cell_2_4 6)))
 (let (($x9248 (= cell_2_4 5)))
 (let (($x10010 (= cell_2_4 4)))
 (let (($x4829 (= cell_2_4 3)))
 (let (($x546 (= cell_2_4 2)))
 (let (($x1637 (= cell_2_4 1)))
 (or $x1637 $x546 $x4829 $x10010 $x9248 $x3250 $x5879 $x5474 $x2589)))))))))))
(assert
 (let (($x5322 (= cell_3_4 9)))
 (let (($x9302 (= cell_3_4 8)))
 (let (($x1191 (= cell_3_4 7)))
 (let (($x5490 (= cell_3_4 6)))
 (let (($x4735 (= cell_3_4 5)))
 (let (($x777 (= cell_3_4 4)))
 (let (($x35 (= cell_3_4 3)))
 (let (($x5181 (= cell_3_4 2)))
 (let (($x8074 (= cell_3_4 1)))
 (or $x8074 $x5181 $x35 $x777 $x4735 $x5490 $x1191 $x9302 $x5322)))))))))))
(assert
 (let (($x9665 (= cell_4_4 1)))
 (or $x9665 (= cell_4_4 2) (= cell_4_4 3) (= cell_4_4 4) (= cell_4_4 5) (= cell_4_4 6) (= cell_4_4 7) (= cell_4_4 8) (= cell_4_4 9))))
(assert
 (let (($x3097 (= cell_5_4 1)))
 (or $x3097 (= cell_5_4 2) (= cell_5_4 3) (= cell_5_4 4) (= cell_5_4 5) (= cell_5_4 6) (= cell_5_4 7) (= cell_5_4 8) (= cell_5_4 9))))
(assert
 (let (($x6937 (= cell_6_4 9)))
 (let (($x8515 (= cell_6_4 8)))
 (let (($x7335 (= cell_6_4 7)))
 (let (($x141 (= cell_6_4 6)))
 (let (($x2653 (= cell_6_4 5)))
 (let (($x8262 (= cell_6_4 4)))
 (let (($x5206 (= cell_6_4 3)))
 (let (($x9286 (= cell_6_4 2)))
 (let (($x1204 (= cell_6_4 1)))
 (or $x1204 $x9286 $x5206 $x8262 $x2653 $x141 $x7335 $x8515 $x6937)))))))))))
(assert
 (let (($x8018 (= cell_7_4 9)))
 (let (($x6473 (= cell_7_4 8)))
 (let (($x2839 (= cell_7_4 7)))
 (let (($x8583 (= cell_7_4 6)))
 (let (($x1925 (= cell_7_4 5)))
 (let (($x5465 (= cell_7_4 4)))
 (let (($x540 (= cell_7_4 3)))
 (let (($x7275 (= cell_7_4 2)))
 (let (($x8730 (= cell_7_4 1)))
 (or $x8730 $x7275 $x540 $x5465 $x1925 $x8583 $x2839 $x6473 $x8018)))))))))))
(assert
 (let (($x4052 (= cell_8_4 1)))
 (or $x4052 (= cell_8_4 2) (= cell_8_4 3) (= cell_8_4 4) (= cell_8_4 5) (= cell_8_4 6) (= cell_8_4 7) (= cell_8_4 8) (= cell_8_4 9))))
(assert
 (let (($x10124 (= cell_9_4 1)))
 (or $x10124 (= cell_9_4 2) (= cell_9_4 3) (= cell_9_4 4) (= cell_9_4 5) (= cell_9_4 6) (= cell_9_4 7) (= cell_9_4 8) (= cell_9_4 9))))
(assert
 (let (($x8961 (= cell_1_5 9)))
 (let (($x2306 (= cell_1_5 8)))
 (let (($x1467 (= cell_1_5 7)))
 (let (($x3814 (= cell_1_5 6)))
 (let (($x2509 (= cell_1_5 5)))
 (let (($x8970 (= cell_1_5 4)))
 (let (($x2052 (= cell_1_5 3)))
 (let (($x5998 (= cell_1_5 2)))
 (let (($x1483 (= cell_1_5 1)))
 (or $x1483 $x5998 $x2052 $x8970 $x2509 $x3814 $x1467 $x2306 $x8961)))))))))))
(assert
 (let (($x6208 (= cell_2_5 9)))
 (let (($x8069 (= cell_2_5 8)))
 (let (($x5962 (= cell_2_5 7)))
 (let (($x8462 (= cell_2_5 6)))
 (let (($x2734 (= cell_2_5 5)))
 (let (($x9851 (= cell_2_5 4)))
 (let (($x7588 (= cell_2_5 3)))
 (let (($x2181 (= cell_2_5 2)))
 (let (($x2562 (= cell_2_5 1)))
 (or $x2562 $x2181 $x7588 $x9851 $x2734 $x8462 $x5962 $x8069 $x6208)))))))))))
(assert
 (let (($x1659 (= cell_3_5 1)))
 (or $x1659 (= cell_3_5 2) (= cell_3_5 3) (= cell_3_5 4) (= cell_3_5 5) (= cell_3_5 6) (= cell_3_5 7) (= cell_3_5 8) (= cell_3_5 9))))
(assert
 (let (($x1488 (= cell_4_5 1)))
 (or $x1488 (= cell_4_5 2) (= cell_4_5 3) (= cell_4_5 4) (= cell_4_5 5) (= cell_4_5 6) (= cell_4_5 7) (= cell_4_5 8) (= cell_4_5 9))))
(assert
 (let (($x3852 (= cell_5_5 1)))
 (or $x3852 (= cell_5_5 2) (= cell_5_5 3) (= cell_5_5 4) (= cell_5_5 5) (= cell_5_5 6) (= cell_5_5 7) (= cell_5_5 8) (= cell_5_5 9))))
(assert
 (let (($x1267 (= cell_6_5 9)))
 (let (($x725 (= cell_6_5 8)))
 (let (($x1200 (= cell_6_5 7)))
 (let (($x410 (= cell_6_5 6)))
 (let (($x4180 (= cell_6_5 5)))
 (let (($x9298 (= cell_6_5 4)))
 (let (($x6945 (= cell_6_5 3)))
 (let (($x8921 (= cell_6_5 2)))
 (let (($x6156 (= cell_6_5 1)))
 (or $x6156 $x8921 $x6945 $x9298 $x4180 $x410 $x1200 $x725 $x1267)))))))))))
(assert
 (let (($x2271 (= cell_7_5 9)))
 (let (($x4960 (= cell_7_5 8)))
 (let (($x4117 (= cell_7_5 7)))
 (let (($x7874 (= cell_7_5 6)))
 (let (($x7108 (= cell_7_5 5)))
 (let (($x4824 (= cell_7_5 4)))
 (let (($x6809 (= cell_7_5 3)))
 (let (($x8923 (= cell_7_5 2)))
 (let (($x5182 (= cell_7_5 1)))
 (or $x5182 $x8923 $x6809 $x4824 $x7108 $x7874 $x4117 $x4960 $x2271)))))))))))
(assert
 (let (($x7330 (= cell_8_5 1)))
 (or $x7330 (= cell_8_5 2) (= cell_8_5 3) (= cell_8_5 4) (= cell_8_5 5) (= cell_8_5 6) (= cell_8_5 7) (= cell_8_5 8) (= cell_8_5 9))))
(assert
 (let (($x4653 (= cell_9_5 1)))
 (or $x4653 (= cell_9_5 2) (= cell_9_5 3) (= cell_9_5 4) (= cell_9_5 5) (= cell_9_5 6) (= cell_9_5 7) (= cell_9_5 8) (= cell_9_5 9))))
(assert
 (let (($x2947 (= cell_1_6 9)))
 (let (($x9259 (= cell_1_6 8)))
 (let (($x7804 (= cell_1_6 7)))
 (let (($x7379 (= cell_1_6 6)))
 (let (($x289 (= cell_1_6 5)))
 (let (($x10156 (= cell_1_6 4)))
 (let (($x8068 (= cell_1_6 3)))
 (let (($x7304 (= cell_1_6 2)))
 (let (($x8835 (= cell_1_6 1)))
 (or $x8835 $x7304 $x8068 $x10156 $x289 $x7379 $x7804 $x9259 $x2947)))))))))))
(assert
 (let (($x9997 (= cell_2_6 9)))
 (let (($x4323 (= cell_2_6 8)))
 (let (($x2419 (= cell_2_6 7)))
 (let (($x5697 (= cell_2_6 6)))
 (let (($x6243 (= cell_2_6 5)))
 (let (($x5716 (= cell_2_6 4)))
 (let (($x8505 (= cell_2_6 3)))
 (let (($x1168 (= cell_2_6 2)))
 (let (($x666 (= cell_2_6 1)))
 (or $x666 $x1168 $x8505 $x5716 $x6243 $x5697 $x2419 $x4323 $x9997)))))))))))
(assert
 (let (($x2986 (= cell_3_6 1)))
 (or $x2986 (= cell_3_6 2) (= cell_3_6 3) (= cell_3_6 4) (= cell_3_6 5) (= cell_3_6 6) (= cell_3_6 7) (= cell_3_6 8) (= cell_3_6 9))))
(assert
 (let (($x5757 (= cell_4_6 1)))
 (or $x5757 (= cell_4_6 2) (= cell_4_6 3) (= cell_4_6 4) (= cell_4_6 5) (= cell_4_6 6) (= cell_4_6 7) (= cell_4_6 8) (= cell_4_6 9))))
(assert
 (let (($x7007 (= cell_5_6 1)))
 (or $x7007 (= cell_5_6 2) (= cell_5_6 3) (= cell_5_6 4) (= cell_5_6 5) (= cell_5_6 6) (= cell_5_6 7) (= cell_5_6 8) (= cell_5_6 9))))
(assert
 (let (($x3275 (= cell_6_6 9)))
 (let (($x10211 (= cell_6_6 8)))
 (let (($x915 (= cell_6_6 7)))
 (let (($x437 (= cell_6_6 6)))
 (let (($x4139 (= cell_6_6 5)))
 (let (($x2835 (= cell_6_6 4)))
 (let (($x3427 (= cell_6_6 3)))
 (let (($x5314 (= cell_6_6 2)))
 (let (($x8772 (= cell_6_6 1)))
 (or $x8772 $x5314 $x3427 $x2835 $x4139 $x437 $x915 $x10211 $x3275)))))))))))
(assert
 (let (($x8699 (= cell_7_6 9)))
 (let (($x9641 (= cell_7_6 8)))
 (let (($x2157 (= cell_7_6 7)))
 (let (($x584 (= cell_7_6 6)))
 (let (($x7078 (= cell_7_6 5)))
 (let (($x7323 (= cell_7_6 4)))
 (let (($x7534 (= cell_7_6 3)))
 (let (($x8305 (= cell_7_6 2)))
 (let (($x4550 (= cell_7_6 1)))
 (or $x4550 $x8305 $x7534 $x7323 $x7078 $x584 $x2157 $x9641 $x8699)))))))))))
(assert
 (let (($x6865 (= cell_8_6 1)))
 (or $x6865 (= cell_8_6 2) (= cell_8_6 3) (= cell_8_6 4) (= cell_8_6 5) (= cell_8_6 6) (= cell_8_6 7) (= cell_8_6 8) (= cell_8_6 9))))
(assert
 (or (= cell_9_6 1) (= cell_9_6 2) (= cell_9_6 3) (= cell_9_6 4) (= cell_9_6 5) (= cell_9_6 6) (= cell_9_6 7) (= cell_9_6 8) (= cell_9_6 9)))
(assert
 (let (($x3727 (= cell_1_7 9)))
 (let (($x1745 (= cell_1_7 8)))
 (let (($x694 (= cell_1_7 7)))
 (let (($x7820 (= cell_1_7 6)))
 (let (($x3278 (= cell_1_7 5)))
 (let (($x5965 (= cell_1_7 4)))
 (let (($x3792 (= cell_1_7 3)))
 (let (($x6049 (= cell_1_7 2)))
 (let (($x1650 (= cell_1_7 1)))
 (or $x1650 $x6049 $x3792 $x5965 $x3278 $x7820 $x694 $x1745 $x3727)))))))))))
(assert
 (let (($x1696 (= cell_2_7 9)))
 (let (($x3409 (= cell_2_7 8)))
 (let (($x3813 (= cell_2_7 7)))
 (let (($x4736 (= cell_2_7 6)))
 (let (($x111 (= cell_2_7 5)))
 (let (($x3951 (= cell_2_7 4)))
 (let (($x8698 (= cell_2_7 3)))
 (let (($x1079 (= cell_2_7 2)))
 (let (($x5604 (= cell_2_7 1)))
 (or $x5604 $x1079 $x8698 $x3951 $x111 $x4736 $x3813 $x3409 $x1696)))))))))))
(assert
 (let (($x7032 (= cell_3_7 9)))
 (let (($x7626 (= cell_3_7 8)))
 (let (($x7395 (= cell_3_7 7)))
 (let (($x8296 (= cell_3_7 6)))
 (let (($x607 (= cell_3_7 5)))
 (let (($x1064 (= cell_3_7 4)))
 (let (($x295 (= cell_3_7 3)))
 (let (($x8310 (= cell_3_7 2)))
 (let (($x10103 (= cell_3_7 1)))
 (or $x10103 $x8310 $x295 $x1064 $x607 $x8296 $x7395 $x7626 $x7032)))))))))))
(assert
 (let (($x5115 (= cell_4_7 9)))
 (let (($x4856 (= cell_4_7 8)))
 (let (($x1986 (= cell_4_7 7)))
 (let (($x10203 (= cell_4_7 6)))
 (let (($x87 (= cell_4_7 5)))
 (let (($x5842 (= cell_4_7 4)))
 (let (($x3742 (= cell_4_7 3)))
 (let (($x4298 (= cell_4_7 2)))
 (let (($x3441 (= cell_4_7 1)))
 (or $x3441 $x4298 $x3742 $x5842 $x87 $x10203 $x1986 $x4856 $x5115)))))))))))
(assert
 (let (($x2695 (= cell_5_7 9)))
 (let (($x1772 (= cell_5_7 8)))
 (let (($x6762 (= cell_5_7 7)))
 (let (($x6309 (= cell_5_7 6)))
 (let (($x7238 (= cell_5_7 5)))
 (let (($x836 (= cell_5_7 4)))
 (let (($x3865 (= cell_5_7 3)))
 (let (($x8905 (= cell_5_7 2)))
 (let (($x9778 (= cell_5_7 1)))
 (or $x9778 $x8905 $x3865 $x836 $x7238 $x6309 $x6762 $x1772 $x2695)))))))))))
(assert
 (let (($x3143 (= cell_6_7 9)))
 (let (($x7525 (= cell_6_7 8)))
 (let (($x3422 (= cell_6_7 7)))
 (let (($x5294 (= cell_6_7 6)))
 (let (($x8293 (= cell_6_7 5)))
 (let (($x3662 (= cell_6_7 4)))
 (let (($x1259 (= cell_6_7 3)))
 (let (($x3327 (= cell_6_7 2)))
 (let (($x9990 (= cell_6_7 1)))
 (or $x9990 $x3327 $x1259 $x3662 $x8293 $x5294 $x3422 $x7525 $x3143)))))))))))
(assert
 (let (($x3778 (= cell_7_7 1)))
 (or $x3778 (= cell_7_7 2) (= cell_7_7 3) (= cell_7_7 4) (= cell_7_7 5) (= cell_7_7 6) (= cell_7_7 7) (= cell_7_7 8) (= cell_7_7 9))))
(assert
 (let (($x942 (= cell_8_7 1)))
 (or $x942 (= cell_8_7 2) (= cell_8_7 3) (= cell_8_7 4) (= cell_8_7 5) (= cell_8_7 6) (= cell_8_7 7) (= cell_8_7 8) (= cell_8_7 9))))
(assert
 (let (($x2027 (= cell_9_7 1)))
 (or $x2027 (= cell_9_7 2) (= cell_9_7 3) (= cell_9_7 4) (= cell_9_7 5) (= cell_9_7 6) (= cell_9_7 7) (= cell_9_7 8) (= cell_9_7 9))))
(assert
 (let (($x6700 (= cell_1_8 1)))
 (or $x6700 (= cell_1_8 2) (= cell_1_8 3) (= cell_1_8 4) (= cell_1_8 5) (= cell_1_8 6) (= cell_1_8 7) (= cell_1_8 8) (= cell_1_8 9))))
(assert
 (let (($x3810 (= cell_2_8 1)))
 (or $x3810 (= cell_2_8 2) (= cell_2_8 3) (= cell_2_8 4) (= cell_2_8 5) (= cell_2_8 6) (= cell_2_8 7) (= cell_2_8 8) (= cell_2_8 9))))
(assert
 (let (($x5142 (= cell_3_8 1)))
 (or $x5142 (= cell_3_8 2) (= cell_3_8 3) (= cell_3_8 4) (= cell_3_8 5) (= cell_3_8 6) (= cell_3_8 7) (= cell_3_8 8) (= cell_3_8 9))))
(assert
 (let (($x6817 (= cell_4_8 9)))
 (let (($x2969 (= cell_4_8 8)))
 (let (($x1150 (= cell_4_8 7)))
 (let (($x1796 (= cell_4_8 6)))
 (let (($x9712 (= cell_4_8 5)))
 (let (($x1109 (= cell_4_8 4)))
 (let (($x4762 (= cell_4_8 3)))
 (let (($x3172 (= cell_4_8 2)))
 (let (($x7896 (= cell_4_8 1)))
 (or $x7896 $x3172 $x4762 $x1109 $x9712 $x1796 $x1150 $x2969 $x6817)))))))))))
(assert
 (let (($x4215 (= cell_5_8 9)))
 (let (($x5660 (= cell_5_8 8)))
 (let (($x5959 (= cell_5_8 7)))
 (let (($x9022 (= cell_5_8 6)))
 (let (($x5947 (= cell_5_8 5)))
 (let (($x10217 (= cell_5_8 4)))
 (let (($x1321 (= cell_5_8 3)))
 (let (($x1480 (= cell_5_8 2)))
 (let (($x9691 (= cell_5_8 1)))
 (or $x9691 $x1480 $x1321 $x10217 $x5947 $x9022 $x5959 $x5660 $x4215)))))))))))
(assert
 (let (($x5288 (= cell_6_8 9)))
 (let (($x7211 (= cell_6_8 8)))
 (let (($x6608 (= cell_6_8 7)))
 (let (($x1469 (= cell_6_8 6)))
 (let (($x8716 (= cell_6_8 5)))
 (let (($x796 (= cell_6_8 4)))
 (let (($x9571 (= cell_6_8 3)))
 (let (($x4583 (= cell_6_8 2)))
 (let (($x1638 (= cell_6_8 1)))
 (or $x1638 $x4583 $x9571 $x796 $x8716 $x1469 $x6608 $x7211 $x5288)))))))))))
(assert
 (let (($x8690 (= cell_7_8 1)))
 (or $x8690 (= cell_7_8 2) (= cell_7_8 3) (= cell_7_8 4) (= cell_7_8 5) (= cell_7_8 6) (= cell_7_8 7) (= cell_7_8 8) (= cell_7_8 9))))
(assert
 (let (($x3483 (= cell_8_8 1)))
 (or $x3483 (= cell_8_8 2) (= cell_8_8 3) (= cell_8_8 4) (= cell_8_8 5) (= cell_8_8 6) (= cell_8_8 7) (= cell_8_8 8) (= cell_8_8 9))))
(assert
 (let (($x7183 (= cell_9_8 1)))
 (or $x7183 (= cell_9_8 2) (= cell_9_8 3) (= cell_9_8 4) (= cell_9_8 5) (= cell_9_8 6) (= cell_9_8 7) (= cell_9_8 8) (= cell_9_8 9))))
(assert
 (let (($x8643 (= cell_1_9 9)))
 (let (($x8129 (= cell_1_9 8)))
 (let (($x1673 (= cell_1_9 7)))
 (let (($x4372 (= cell_1_9 6)))
 (let (($x2964 (= cell_1_9 5)))
 (let (($x3602 (= cell_1_9 4)))
 (let (($x8067 (= cell_1_9 3)))
 (let (($x788 (= cell_1_9 2)))
 (let (($x3888 (= cell_1_9 1)))
 (or $x3888 $x788 $x8067 $x3602 $x2964 $x4372 $x1673 $x8129 $x8643)))))))))))
(assert
 (let (($x1296 (= cell_2_9 9)))
 (let (($x3077 (= cell_2_9 8)))
 (let (($x4973 (= cell_2_9 7)))
 (let (($x9321 (= cell_2_9 6)))
 (let (($x6377 (= cell_2_9 5)))
 (let (($x2478 (= cell_2_9 4)))
 (let (($x3971 (= cell_2_9 3)))
 (let (($x6601 (= cell_2_9 2)))
 (let (($x926 (= cell_2_9 1)))
 (or $x926 $x6601 $x3971 $x2478 $x6377 $x9321 $x4973 $x3077 $x1296)))))))))))
(assert
 (let (($x4250 (= cell_3_9 9)))
 (let (($x6116 (= cell_3_9 8)))
 (let (($x8804 (= cell_3_9 7)))
 (let (($x4318 (= cell_3_9 6)))
 (let (($x7387 (= cell_3_9 5)))
 (let (($x1937 (= cell_3_9 4)))
 (let (($x10135 (= cell_3_9 3)))
 (let (($x9936 (= cell_3_9 2)))
 (let (($x2939 (= cell_3_9 1)))
 (or $x2939 $x9936 $x10135 $x1937 $x7387 $x4318 $x8804 $x6116 $x4250)))))))))))
(assert
 (let (($x9357 (= cell_4_9 9)))
 (let (($x6079 (= cell_4_9 8)))
 (let (($x920 (= cell_4_9 7)))
 (let (($x5762 (= cell_4_9 6)))
 (let (($x5099 (= cell_4_9 5)))
 (let (($x4540 (= cell_4_9 4)))
 (let (($x8549 (= cell_4_9 3)))
 (let (($x7995 (= cell_4_9 2)))
 (let (($x8844 (= cell_4_9 1)))
 (or $x8844 $x7995 $x8549 $x4540 $x5099 $x5762 $x920 $x6079 $x9357)))))))))))
(assert
 (let (($x3066 (= cell_5_9 9)))
 (let (($x3924 (= cell_5_9 8)))
 (let (($x8019 (= cell_5_9 7)))
 (let (($x5958 (= cell_5_9 6)))
 (let (($x1023 (= cell_5_9 5)))
 (let (($x4239 (= cell_5_9 4)))
 (let (($x1941 (= cell_5_9 3)))
 (let (($x8540 (= cell_5_9 2)))
 (let (($x2893 (= cell_5_9 1)))
 (or $x2893 $x8540 $x1941 $x4239 $x1023 $x5958 $x8019 $x3924 $x3066)))))))))))
(assert
 (let (($x579 (= cell_6_9 1)))
 (or $x579 (= cell_6_9 2) (= cell_6_9 3) (= cell_6_9 4) (= cell_6_9 5) (= cell_6_9 6) (= cell_6_9 7) (= cell_6_9 8) (= cell_6_9 9))))
(assert
 (let (($x3356 (= cell_7_9 1)))
 (or $x3356 (= cell_7_9 2) (= cell_7_9 3) (= cell_7_9 4) (= cell_7_9 5) (= cell_7_9 6) (= cell_7_9 7) (= cell_7_9 8) (= cell_7_9 9))))
(assert
 (let (($x3569 (= cell_8_9 1)))
 (or $x3569 (= cell_8_9 2) (= cell_8_9 3) (= cell_8_9 4) (= cell_8_9 5) (= cell_8_9 6) (= cell_8_9 7) (= cell_8_9 8) (= cell_8_9 9))))
(assert
 (let (($x5376 (= cell_9_9 1)))
 (or $x5376 (= cell_9_9 2) (= cell_9_9 3) (= cell_9_9 4) (= cell_9_9 5) (= cell_9_9 6) (= cell_9_9 7) (= cell_9_9 8) (= cell_9_9 9))))
(assert
 (and (distinct cell_1_1 cell_1_2 cell_1_3 cell_1_4 cell_1_5 cell_1_6 cell_1_7 cell_1_8 cell_1_9) true))
(assert
 (and (distinct cell_2_1 cell_2_2 cell_2_3 cell_2_4 cell_2_5 cell_2_6 cell_2_7 cell_2_8 cell_2_9) true))
(assert
 (and (distinct cell_3_1 cell_3_2 cell_3_3 cell_3_4 cell_3_5 cell_3_6 cell_3_7 cell_3_8 cell_3_9) true))
(assert
 (and (distinct cell_4_1 cell_4_2 cell_4_3 cell_4_4 cell_4_5 cell_4_6 cell_4_7 cell_4_8 cell_4_9) true))
(assert
 (and (distinct cell_5_1 cell_5_2 cell_5_3 cell_5_4 cell_5_5 cell_5_6 cell_5_7 cell_5_8 cell_5_9) true))
(assert
 (and (distinct cell_6_1 cell_6_2 cell_6_3 cell_6_4 cell_6_5 cell_6_6 cell_6_7 cell_6_8 cell_6_9) true))
(assert
 (and (distinct cell_7_1 cell_7_2 cell_7_3 cell_7_4 cell_7_5 cell_7_6 cell_7_7 cell_7_8 cell_7_9) true))
(assert
 (and (distinct cell_8_1 cell_8_2 cell_8_3 cell_8_4 cell_8_5 cell_8_6 cell_8_7 cell_8_8 cell_8_9) true))
(assert
 (and (distinct cell_9_1 cell_9_2 cell_9_3 cell_9_4 cell_9_5 cell_9_6 cell_9_7 cell_9_8 cell_9_9) true))
(assert
 (and (distinct cell_1_1 cell_2_1 cell_3_1 cell_4_1 cell_5_1 cell_6_1 cell_7_1 cell_8_1 cell_9_1) true))
(assert
 (and (distinct cell_1_2 cell_2_2 cell_3_2 cell_4_2 cell_5_2 cell_6_2 cell_7_2 cell_8_2 cell_9_2) true))
(assert
 (and (distinct cell_1_3 cell_2_3 cell_3_3 cell_4_3 cell_5_3 cell_6_3 cell_7_3 cell_8_3 cell_9_3) true))
(assert
 (and (distinct cell_1_4 cell_2_4 cell_3_4 cell_4_4 cell_5_4 cell_6_4 cell_7_4 cell_8_4 cell_9_4) true))
(assert
 (and (distinct cell_1_5 cell_2_5 cell_3_5 cell_4_5 cell_5_5 cell_6_5 cell_7_5 cell_8_5 cell_9_5) true))
(assert
 (and (distinct cell_1_6 cell_2_6 cell_3_6 cell_4_6 cell_5_6 cell_6_6 cell_7_6 cell_8_6 cell_9_6) true))
(assert
 (and (distinct cell_1_7 cell_2_7 cell_3_7 cell_4_7 cell_5_7 cell_6_7 cell_7_7 cell_8_7 cell_9_7) true))
(assert
 (and (distinct cell_1_8 cell_2_8 cell_3_8 cell_4_8 cell_5_8 cell_6_8 cell_7_8 cell_8_8 cell_9_8) true))
(assert
 (and (distinct cell_1_9 cell_2_9 cell_3_9 cell_4_9 cell_5_9 cell_6_9 cell_7_9 cell_8_9 cell_9_9) true))
(assert
 (and (distinct cell_1_1 cell_1_2 cell_1_3 cell_2_1 cell_2_2 cell_2_3 cell_3_1 cell_3_2 cell_3_3) true))
(assert
 (and (distinct cell_1_4 cell_1_5 cell_1_6 cell_2_4 cell_2_5 cell_2_6 cell_3_4 cell_3_5 cell_3_6) true))
(assert
 (and (distinct cell_1_7 cell_1_8 cell_1_9 cell_2_7 cell_2_8 cell_2_9 cell_3_7 cell_3_8 cell_3_9) true))
(assert
 (and (distinct cell_4_1 cell_4_2 cell_4_3 cell_5_1 cell_5_2 cell_5_3 cell_6_1 cell_6_2 cell_6_3) true))
(assert
 (and (distinct cell_4_4 cell_4_5 cell_4_6 cell_5_4 cell_5_5 cell_5_6 cell_6_4 cell_6_5 cell_6_6) true))
(assert
 (and (distinct cell_4_7 cell_4_8 cell_4_9 cell_5_7 cell_5_8 cell_5_9 cell_6_7 cell_6_8 cell_6_9) true))
(assert
 (and (distinct cell_7_1 cell_7_2 cell_7_3 cell_8_1 cell_8_2 cell_8_3 cell_9_1 cell_9_2 cell_9_3) true))
(assert
 (and (distinct cell_7_4 cell_7_5 cell_7_6 cell_8_4 cell_8_5 cell_8_6 cell_9_4 cell_9_5 cell_9_6) true))
(assert
 (and (distinct cell_7_7 cell_7_8 cell_7_9 cell_8_7 cell_8_8 cell_8_9 cell_9_7 cell_9_8 cell_9_9) true))
(assert
 (let (($x7877 (and (distinct cell_5_9 cell_6_8 cell_7_7 cell_8_6) true)))
 (let (($x4356 (and (distinct cell_2_9 cell_3_8 cell_4_7 cell_5_6 cell_6_5 cell_7_4 cell_8_3 cell_9_2) true)))
 (let (($x8761 (and (distinct cell_1_8 cell_2_7 cell_3_6 cell_4_5 cell_5_4 cell_6_3 cell_7_2 cell_8_1) true)))
 (let (($x8979 (and (distinct cell_1_5 cell_2_4 cell_3_3 cell_4_2) true)))
 (let (($x4849 (and (distinct cell_5_1 cell_6_2 cell_7_3 cell_8_4) true)))
 (let (($x7419 (and (distinct cell_2_1 cell_3_2 cell_4_3 cell_5_4 cell_6_5 cell_7_6 cell_8_7 cell_9_8) true)))
 (let (($x2737 (and (distinct cell_1_2 cell_2_3 cell_3_4 cell_4_5 cell_5_6 cell_6_7 cell_7_8 cell_8_9) true)))
 (let (($x3469 (and (distinct cell_1_5 cell_2_6 cell_3_7 cell_4_8) true)))
 (and $x3469 $x2737 $x7419 $x4849 $x8979 $x8761 $x4356 $x7877))))))))))
(assert
 (= cell_8_2 1))
(check-sat)
